; benchmark generated from python API
(set-info :status unknown)
(declare-fun x_days () Int)
(declare-fun y_days () Int)
(assert
 (>= x_days (- 36525)))
(assert
 (<= x_days 36523))
(assert
 (>= y_days (- 36525)))
(assert
 (<= y_days 36523))
(assert
 (= x_days 7304))
(assert
 (let ((?x1190 (+ x_days 730179)))
 (let ((?x1185 (mod ?x1190 146097)))
 (let ((?x734 (div ?x1185 36524)))
 (let ((?x1182 (ite (<= 4 ?x734) 3 ?x734)))
 (let ((?x1180 (- ?x1185 (* ?x1182 36524))))
 (let ((?x1186 (mod ?x1180 1461)))
 (let ((?x1187 (div ?x1186 365)))
 (let ((?x1189 (ite (<= 4 ?x1187) 3 ?x1187)))
 (let ((?x1197 (+ (+ (* (div ?x1190 146097) 400) (* ?x1182 100)) (* (div ?x1180 1461) 4))))
 (let ((?x1715 (+ (+ ?x1197 ?x1189) 1)))
 (let (($x1712 (or (and (= (mod ?x1715 4) 0) (and (distinct (mod ?x1715 100) 0) true)) (= (mod ?x1715 400) 0))))
 (let ((?x1192 (- ?x1186 (* ?x1189 365))))
 (let ((?x1714 (ite $x1712 31 31)))
 (let (($x1705 (>= ?x1192 ?x1714)))
 (let ((?x1667 (ite $x1705 (+ (- ?x1192 ?x1714) 1) (+ (- ?x1192 (ite $x1712 0 0)) 1))))
 (let ((?x1716 (ite $x1712 60 59)))
 (let (($x1693 (>= ?x1192 ?x1716)))
 (let ((?x1717 (ite $x1712 91 90)))
 (let (($x1687 (>= ?x1192 ?x1717)))
 (let ((?x1660 (ite $x1687 (+ (- ?x1192 ?x1717) 1) (ite $x1693 (+ (- ?x1192 ?x1716) 1) ?x1667))))
 (let ((?x1704 (ite $x1712 121 120)))
 (let (($x1689 (>= ?x1192 ?x1704)))
 (let ((?x1697 (ite $x1712 152 151)))
 (let (($x1691 (>= ?x1192 ?x1697)))
 (let ((?x1658 (ite $x1691 (+ (- ?x1192 ?x1697) 1) (ite $x1689 (+ (- ?x1192 ?x1704) 1) ?x1660))))
 (let ((?x1698 (ite $x1712 182 181)))
 (let (($x1694 (>= ?x1192 ?x1698)))
 (let ((?x1699 (ite $x1712 213 212)))
 (let (($x1682 (>= ?x1192 ?x1699)))
 (let ((?x1643 (ite $x1682 (+ (- ?x1192 ?x1699) 1) (ite $x1694 (+ (- ?x1192 ?x1698) 1) ?x1658))))
 (let ((?x1700 (ite $x1712 244 243)))
 (let (($x1676 (>= ?x1192 ?x1700)))
 (let ((?x1701 (ite $x1712 274 273)))
 (let (($x1678 (>= ?x1192 ?x1701)))
 (let ((?x1650 (ite $x1678 (+ (- ?x1192 ?x1701) 1) (ite $x1676 (+ (- ?x1192 ?x1700) 1) ?x1643))))
 (let ((?x1702 (ite $x1712 305 304)))
 (let (($x1680 (>= ?x1192 ?x1702)))
 (let ((?x1703 (ite $x1712 335 334)))
 (let (($x1683 (>= ?x1192 ?x1703)))
 (let ((?x1634 (ite $x1683 (+ (- ?x1192 ?x1703) 1) (ite $x1680 (+ (- ?x1192 ?x1702) 1) ?x1650))))
 (let ((?x1012 (+ (* 1 12) 0)))
 (let ((?x1690 (ite $x1689 5 (ite $x1687 4 (ite $x1693 3 (ite $x1705 2 1))))))
 (let ((?x1677 (ite $x1676 9 (ite $x1682 8 (ite $x1694 7 (ite $x1691 6 ?x1690))))))
 (let ((?x1636 (- (+ (ite $x1683 12 (ite $x1680 11 (ite $x1678 10 ?x1677))) ?x1012) 1)))
 (let ((?x1627 (+ (mod ?x1636 12) 1)))
 (let ((?x1615 (ite (or (= ?x1627 4) (= ?x1627 6) (= ?x1627 9) (= ?x1627 11)) 30 31)))
 (let (($x1626 (and (= (mod (+ ?x1715 (+ 0 (div ?x1636 12))) 4) 0) (and (distinct (mod (+ ?x1715 (+ 0 (div ?x1636 12))) 100) 0) true))))
 (let (($x1616 (or $x1626 (= (mod (+ ?x1715 (+ 0 (div ?x1636 12))) 400) 0))))
 (let ((?x1617 (ite (= ?x1627 2) (ite $x1616 29 28) ?x1615)))
 (let ((?x1599 (ite (> 1 ?x1634) 1 (ite (> ?x1634 ?x1617) ?x1617 ?x1634))))
 (let ((?x1603 (ite (> 1 ?x1599) 1 (ite (> ?x1599 ?x1617) ?x1617 ?x1599))))
 (let ((?x1583 (ite (= 2 ?x1627) (ite $x1616 31 31) (ite (= 1 ?x1627) (ite $x1616 0 0) 0))))
 (let ((?x1581 (ite (= 4 ?x1627) (ite $x1616 91 90) (ite (= 3 ?x1627) (ite $x1616 60 59) ?x1583))))
 (let ((?x1566 (ite (= 6 ?x1627) (ite $x1616 152 151) (ite (= 5 ?x1627) (ite $x1616 121 120) ?x1581))))
 (let ((?x1573 (ite (= 8 ?x1627) (ite $x1616 213 212) (ite (= 7 ?x1627) (ite $x1616 182 181) ?x1566))))
 (let ((?x1557 (ite (= 10 ?x1627) (ite $x1616 274 273) (ite (= 9 ?x1627) (ite $x1616 244 243) ?x1573))))
 (let ((?x1550 (ite (= 12 ?x1627) (ite $x1616 335 334) (ite (= 11 ?x1627) (ite $x1616 305 304) ?x1557))))
 (let ((?x1594 (+ (* 365 (- (+ ?x1715 (+ 0 (div ?x1636 12))) 1)) (div (- (+ ?x1715 (+ 0 (div ?x1636 12))) 1) 4))))
 (let ((?x1590 (+ (- ?x1594 (div (- (+ ?x1715 (+ 0 (div ?x1636 12))) 1) 100)) (div (- (+ ?x1715 (+ 0 (div ?x1636 12))) 1) 400))))
 (let ((?x1548 (+ (+ (- (+ (+ ?x1590 ?x1550) (- ?x1603 1)) 730179) 0) 730179)))
 (let ((?x1551 (mod ?x1548 146097)))
 (let ((?x1552 (div ?x1551 36524)))
 (let ((?x1532 (ite (<= 4 ?x1552) 3 ?x1552)))
 (let ((?x1534 (- ?x1551 (* ?x1532 36524))))
 (let ((?x1536 (mod ?x1534 1461)))
 (let ((?x1537 (div ?x1536 365)))
 (let ((?x1540 (ite (<= 4 ?x1537) 3 ?x1537)))
 (let ((?x1525 (+ (+ (* (div ?x1548 146097) 400) (* ?x1532 100)) (* (div ?x1534 1461) 4))))
 (let ((?x1527 (+ (+ ?x1525 ?x1540) 1)))
 (let (($x1514 (or (and (= (mod ?x1527 4) 0) (and (distinct (mod ?x1527 100) 0) true)) (= (mod ?x1527 400) 0))))
 (let ((?x1528 (- ?x1536 (* ?x1540 365))))
 (let ((?x1516 (ite $x1514 31 31)))
 (let (($x1507 (>= ?x1528 ?x1516)))
 (let ((?x1469 (ite $x1507 (+ (- ?x1528 ?x1516) 1) (+ (- ?x1528 (ite $x1514 0 0)) 1))))
 (let ((?x1518 (ite $x1514 60 59)))
 (let (($x1495 (>= ?x1528 ?x1518)))
 (let ((?x1519 (ite $x1514 91 90)))
 (let (($x1489 (>= ?x1528 ?x1519)))
 (let ((?x1462 (ite $x1489 (+ (- ?x1528 ?x1519) 1) (ite $x1495 (+ (- ?x1528 ?x1518) 1) ?x1469))))
 (let ((?x1506 (ite $x1514 121 120)))
 (let (($x1491 (>= ?x1528 ?x1506)))
 (let ((?x1499 (ite $x1514 152 151)))
 (let (($x1493 (>= ?x1528 ?x1499)))
 (let ((?x1460 (ite $x1493 (+ (- ?x1528 ?x1499) 1) (ite $x1491 (+ (- ?x1528 ?x1506) 1) ?x1462))))
 (let ((?x1500 (ite $x1514 182 181)))
 (let (($x1496 (>= ?x1528 ?x1500)))
 (let ((?x1501 (ite $x1514 213 212)))
 (let (($x1484 (>= ?x1528 ?x1501)))
 (let ((?x1445 (ite $x1484 (+ (- ?x1528 ?x1501) 1) (ite $x1496 (+ (- ?x1528 ?x1500) 1) ?x1460))))
 (let ((?x1502 (ite $x1514 244 243)))
 (let (($x1478 (>= ?x1528 ?x1502)))
 (let ((?x1503 (ite $x1514 274 273)))
 (let (($x1480 (>= ?x1528 ?x1503)))
 (let ((?x1452 (ite $x1480 (+ (- ?x1528 ?x1503) 1) (ite $x1478 (+ (- ?x1528 ?x1502) 1) ?x1445))))
 (let ((?x1504 (ite $x1514 305 304)))
 (let (($x1482 (>= ?x1528 ?x1504)))
 (let ((?x1505 (ite $x1514 335 334)))
 (let (($x1485 (>= ?x1528 ?x1505)))
 (let ((?x1436 (ite $x1485 (+ (- ?x1528 ?x1505) 1) (ite $x1482 (+ (- ?x1528 ?x1504) 1) ?x1452))))
 (let (($x1104 (= 0 0)))
 (let (($x1413 (= (mod (ite $x1104 (+ ?x1715 (+ 0 (div ?x1636 12))) ?x1527) 400) 0)))
 (let (($x1418 (and (distinct (mod (ite $x1104 (+ ?x1715 (+ 0 (div ?x1636 12))) ?x1527) 100) 0) true)))
 (let (($x1430 (= (mod (ite $x1104 (+ ?x1715 (+ 0 (div ?x1636 12))) ?x1527) 4) 0)))
 (let (($x1414 (or (and $x1430 $x1418) $x1413)))
 (let ((?x1492 (ite $x1491 5 (ite $x1489 4 (ite $x1495 3 (ite $x1507 2 1))))))
 (let ((?x1479 (ite $x1478 9 (ite $x1484 8 (ite $x1496 7 (ite $x1493 6 ?x1492))))))
 (let ((?x1438 (ite $x1104 ?x1627 (ite $x1485 12 (ite $x1482 11 (ite $x1480 10 ?x1479))))))
 (let ((?x1420 (ite (= 2 ?x1438) (ite $x1414 31 31) (ite (= 1 ?x1438) (ite $x1414 0 0) 0))))
 (let ((?x1404 (ite (= 4 ?x1438) (ite $x1414 91 90) (ite (= 3 ?x1438) (ite $x1414 60 59) ?x1420))))
 (let ((?x1389 (ite (= 6 ?x1438) (ite $x1414 152 151) (ite (= 5 ?x1438) (ite $x1414 121 120) ?x1404))))
 (let ((?x1395 (ite (= 8 ?x1438) (ite $x1414 213 212) (ite (= 7 ?x1438) (ite $x1414 182 181) ?x1389))))
 (let ((?x1380 (ite (= 10 ?x1438) (ite $x1414 274 273) (ite (= 9 ?x1438) (ite $x1414 244 243) ?x1395))))
 (let ((?x1387 (ite (= 12 ?x1438) (ite $x1414 335 334) (ite (= 11 ?x1438) (ite $x1414 305 304) ?x1380))))
 (let ((?x1620 (+ ?x1715 (+ 0 (div ?x1636 12)))))
 (let ((?x1437 (ite $x1104 ?x1620 ?x1527)))
 (let ((?x1441 (- ?x1437 1)))
 (let ((?x1426 (+ (- (+ (* 365 ?x1441) (div ?x1441 4)) (div ?x1441 100)) (div ?x1441 400))))
 (= y_days (- (+ (+ ?x1426 ?x1387) (- (ite $x1104 ?x1603 ?x1436) 1)) 730179))))))))))))))))))))))))))))))))))))))))))))))))))))))))))))))))))))))))))))))))))))))))))))))))))))))))))))))))))))))))
(assert
 (not (= y_days 7669)))
(check-sat)
